(set-logic QF_S)
(declare-fun var0 () String)
(declare-fun var1 () String)
(declare-fun var2 () String)
(declare-fun var3 () String)
(declare-fun var4 () Int)
(declare-fun var5 () Int)
(declare-fun var6 () Int)
(declare-fun var7 () Int)
(declare-fun var8 () Bool)
(assert (>= (str.len (str.replace var0 var1 var2)) (str.indexof (str.at var3 var4) (str.at var3 var5) (str.indexof var2 var1 var6))))
(assert (str.suffixof (str.replace var3 var1 var1) (str.substr var0 var7 185)))
(assert (not (str.in.re var3 re.allchar)))
(assert (not var8))
(check-sat)